NAME: tsp10_2
COMMENT: 10-tsp problem (Padberg/Rinaldi)
TYPE: TSP
DIMENSION: 10
EDGE_WEIGHT_TYPE : EUC_2D
NODE_COORD_SECTION
1.00 24.04 6.51
2.00 0.17 29.13
3.00 31.97 26.86
4.00 27.22 13.24
5.00 38.13 3.49
6.00 14.49 32.19
7.00 0.23 27.37
8.00 21.05 27.12
9.00 18.51 27.67
10.00 17.35 32.37
